1380.76
0 72 10 19 70 71 21 22 2 74 5 27 4 0
0 16 23 32 58 66 8 34 68 75 0
0 39 50 3 24 56 41 43 62 60 29 45 52 0
0 13 15 48 49 18 55 25 9 44 40 17 6 0
0 31 65 53 59 37 61 42 73 63 51 12 26 0
0 35 14 57 20 36 47 33 1 28 30 0
0 64 69 11 38 7 54 46 67 0
